c Sudoku solution
p cnf 729 0
122 0
159 0
164 0
213 0
284 0
318 0
339 0
324 0
345 0
444 0
462 0
476 0
488 0
491 0
574 0
593 0
685 0
733 0
755 0
565 0
792 0
714 0
634 0
841 0
873 0
966 0
971 0
721 0
786 0
995 0
894 0
778 0
954 0
943 0
852 0
868 0
242 0
183 0
381 0
372 0
582 0
612 0
932 0
928 0
538 0
511 0
131 0
267 0
251 0
363 0
356 0
148 0
298 0
279 0
175 0
117 0
196 0
397 0
816 0
415 0
437 0
453 0
429 0
623 0
526 0
557 0
549 0
661 0
919 0
889 0
987 0
225 0
236 0
827 0
835 0
646 0
658 0
747 0
769 0
677 0
699 0
